(declare-fun _if_cond_79_val () (Array Int Int))

(assert (forall ((_for_it_107 Int) (kfdia Int) (kidia Int) (klev Int) (klon Int) (ncldtop Int))
  (=>
    (and
      (not (or (exists ((_for_it_108_0 Int)(_for_it_108_1 Int)) (and (<= _for_it_108_1 (+ kfdia (- 1))) (<= (+ kidia (- 1)) _for_it_108_1) (= (select _if_cond_79_val 0) 1) (<= _for_it_108_0 (+ kfdia (- 1))) (<= (+ kidia (- 1)) _for_it_108_0) (or (and (= _for_it_107 (+ _for_it_107 1)) (= _for_it_108_0 _for_it_108_1)) (and (= _for_it_108_0 _for_it_108_1) (= _for_it_107 4))))) (exists ((_for_it_108_0 Int)(_for_it_108_1 Int)) (and (= (- (+ _for_it_108_0 1) 1) _for_it_108_1) (<= _for_it_108_1 (+ kfdia (- 1))) (= (- (+ _for_it_107 1) 1) (+ _for_it_107 1)) (<= (+ kidia (- 1)) _for_it_108_1) (= (select _if_cond_79_val 0) 1) (<= _for_it_108_0 (+ kfdia (- 1))) (<= (+ kidia (- 1)) _for_it_108_0))) (exists ((_for_it_108_0 Int)(_for_it_108_1 Int)) (and (or (and (= _for_it_107 (+ _for_it_107 1)) (= _for_it_108_0 _for_it_108_1)) (and (= 4 (+ _for_it_107 1)) (= _for_it_108_0 _for_it_108_1))) (<= _for_it_108_1 (+ kfdia (- 1))) (<= (+ kidia (- 1)) _for_it_108_1) (= (select _if_cond_79_val 0) 1) (<= _for_it_108_0 (+ kfdia (- 1))) (<= (+ kidia (- 1)) _for_it_108_0))) (exists ((_for_it_108_0 Int)(_for_it_108_1 Int)) (and (<= _for_it_108_1 (+ kfdia (- 1))) (= _for_it_107 (- (+ _for_it_107 2) 1)) (<= (+ kidia (- 1)) _for_it_108_1) (= _for_it_108_0 (- (+ _for_it_108_1 1) 1)) (= (select _if_cond_79_val 0) 1) (<= _for_it_108_0 (+ kfdia (- 1))) (<= (+ kidia (- 1)) _for_it_108_0))) (exists ((_for_it_108_0 Int)(_for_it_108_1 Int)) (and (<= _for_it_108_1 (+ kfdia (- 1))) (= 4 (- (+ _for_it_107 2) 1)) (<= (+ kidia (- 1)) _for_it_108_1) (= _for_it_108_0 (- (+ _for_it_108_1 1) 1)) (= (select _if_cond_79_val 0) 1) (<= _for_it_108_0 (+ kfdia (- 1))) (<= (+ kidia (- 1)) _for_it_108_0))) (exists ((_for_it_108_0 Int)(_for_it_108_1 Int)) (and (<= (+ kidia (- 1)) _for_it_108_1) (<= _for_it_108_0 (+ kfdia (- 1))) (<= (+ kidia (- 1)) _for_it_108_0) (<= _for_it_108_1 (+ kfdia (- 1))))) (exists ((_for_it_108_0 Int)(_for_it_108_1 Int)) (and (<= _for_it_108_1 (+ kfdia (- 1))) (<= (+ kidia (- 1)) _for_it_108_1) (= (select _if_cond_79_val 0) 1) (<= _for_it_108_0 (+ kfdia (- 1))) (<= (+ kidia (- 1)) _for_it_108_0) (= _for_it_108_0 _for_it_108_1) (= _for_it_107 (+ _for_it_107 1)))) (exists ((_for_it_108_0 Int)(_for_it_108_1 Int)) (and (= (- (+ _for_it_108_0 1) 1) _for_it_108_1) (= (- (+ _for_it_107 1) 1) 4) (<= _for_it_108_1 (+ kfdia (- 1))) (<= (+ kidia (- 1)) _for_it_108_1) (= (select _if_cond_79_val 0) 1) (<= _for_it_108_0 (+ kfdia (- 1))) (<= (+ kidia (- 1)) _for_it_108_0))) (exists ((_for_it_108_0 Int)(_for_it_108_1 Int)) (and (<= _for_it_108_1 (+ kfdia (- 1))) (<= (+ kidia (- 1)) _for_it_108_1) (= (select _if_cond_79_val 0) 1) (<= _for_it_108_0 (+ kfdia (- 1))) (<= (+ kidia (- 1)) _for_it_108_0) (or (and (= _for_it_108_0 _for_it_108_1) (= _for_it_107 4)) (and (= 4 (+ _for_it_107 1)) (= _for_it_108_0 _for_it_108_1)) (= _for_it_108_0 _for_it_108_1))))))
      (<= 0 _for_it_107)
      (<= (+ _for_it_107 1) 3)
      (<= kidia (+ kfdia (- 1)))
      (<= ncldtop (+ klev (- 1)))
    )
    false
  )
))

(check-sat)